  80   13535962
28 76 49 40 68 45 30 33 21 20
60 62 59 73 44 38  5  4  1 52
79 36 78 22 15 65 80 14 54  3
64 16 32 63 67 71 61 10 18 46
11 24 34  6 75 17 41 37  7 58
72 57 42 56 48 70 50 29 77 31
 2 51 25 39 13 27  9 19  8 43
74 69 47 23 26 53 35 12 66 55
 
